
--- Job Ex7-1.gms Start 10/05/20 12:02:21 24.2.3 r46072 WEX-WEI x86_64/MS Windows
GAMS 24.2.3   Copyright (C) 1987-2014 GAMS Development. All rights reserved
Licensee: Utah Water Research Laboratory (5 user)        G140130:1517AV-GEN
          Utah State University                                      DC7087
          License for teaching and research at degree granting institutions
--- Starting compilation
--- Ex7-1.gms(125) 3 Mb
--- Starting execution: elapsed 0:00:00.002
--- Ex7-1.gms(82) 4 Mb
--- Generating MIP model ResDesign
--- Ex7-1.gms(118) 4 Mb
---   13 rows  16 columns  40 non-zeroes
---   6 discrete-columns
--- Executing CPLEX: elapsed 0:00:00.019

IBM ILOG CPLEX   24.2.3 r46072 Released May 22, 2014 WEI x86_64/MS Windows    
Cplex 12.6.0.0

Reading data...
Starting Cplex...
Space for names approximately 0.00 Mb
Use option 'names no' to turn use of names off
Found incumbent of value 0.000000 after 0.00 sec. (0.00 ticks)
Tried aggregator 1 time.
MIP Presolve eliminated 2 rows and 4 columns.
MIP Presolve modified 1 coefficients.
Reduced MIP has 11 rows, 12 columns, and 29 nonzeros.
Reduced MIP has 3 binaries, 0 generals, 0 SOSs, and 0 indicators.
Presolve time = 0.00 sec. (0.02 ticks)
Probing fixed 0 vars, tightened 1 bounds.
Probing time = 0.00 sec. (0.00 ticks)
Tried aggregator 1 time.
MIP Presolve modified 1 coefficients.
Reduced MIP has 11 rows, 12 columns, and 29 nonzeros.
Reduced MIP has 3 binaries, 0 generals, 0 SOSs, and 0 indicators.
Presolve time = 0.00 sec. (0.02 ticks)
Probing time = 0.00 sec. (0.00 ticks)
Clique table members: 1.
MIP emphasis: balance optimality and feasibility.
MIP search method: dynamic search.
Parallel mode: none, using 1 thread.
Tried aggregator 1 time.
No LP presolve or aggregator reductions.
Presolve time = 0.00 sec. (0.00 ticks)
Initializing dual steep norms . . .

Iteration      Dual Objective            In Variable           Out Variable
     1          112120.000000                   AREA AreaToSupply(s2) slack
     2          104110.000000              X(pum.s1) AreaToSupply(s1) slack
     3          101433.333333              X(pum.s2)   RivMassBal(s2) slack
     4          100150.000000               STOR(s1)   RivMassBal(s1) slack
     5           90441.666667            I(res.lev2)  ResCapacity(s1) slack
     6           83168.939394            I(pum.lev1) PumpCapacity(s2) slack
     7           83150.780275 PumpCapacity(s2) slack PumpCapacity(s1) slack
Root relaxation solution time = 0.00 sec. (0.02 ticks)

        Nodes                                         Cuts/
   Node  Left     Objective  IInf  Best Integer    Best Bound    ItCnt     Gap

*     0+    0                            0.0000   120150.0000        7     --- 
Found incumbent of value 0.000000 after 0.06 sec. (0.08 ticks)
      0     0    83150.7803     2        0.0000    83150.7803        7     --- 
*     0+    0                        82150.0000    83150.7803        7    1.22%
Found incumbent of value 82150.000000 after 0.06 sec. (0.09 ticks)

Root node processing (before b&c):
  Real time             =    0.06 sec. (0.09 ticks)
Sequential b&c:
  Real time             =    0.00 sec. (0.00 ticks)
                          ------------
Total (root+branch&cut) =    0.06 sec. (0.09 ticks)
MIP status(102): integer optimal, tolerance
Cplex Time: 0.06sec (det. 0.09 ticks)
Fixing integer variables, and solving final LP...
Tried aggregator 1 time.
LP Presolve eliminated 7 rows and 7 columns.
Reduced LP has 6 rows, 9 columns, and 17 nonzeros.
Presolve time = 0.00 sec. (0.01 ticks)
Initializing dual steep norms . . .

Iteration      Dual Objective            In Variable           Out Variable
     1  I          179.999998                   AREA AreaToSupply(s2) slack
     2  I           99.999998              X(pum.s2)   RivMassBal(s2) slack
     3  I            0.000000               STOR(s1)              X(res.s1)
     4           83433.333333              X(pum.s1) AreaToSupply(s1) slack
     5           82150.000000              X(res.s1)   RivMassBal(s1) slack
Fixed MIP status(1): optimal
Cplex Time: 0.01sec (det. 0.02 ticks)

Solution satisfies tolerances.

MIP Solution:        82150.000000    (7 iterations, 0 nodes)
Final Solve:         82150.000000    (5 iterations)

Best possible:       83150.780275
Absolute gap:         1000.780275
Relative gap:            0.012182

--- Restarting execution
--- Ex7-1.gms(118) 2 Mb
--- Reading solution for model ResDesign
--- Executing after solve: elapsed 0:00:00.176
--- Ex7-1.gms(125) 3 Mb
GDX2XLS          24.2.3 r46072 Released May 22, 2014 VS8 x86/MS Windows       
*** Status: Normal completion
--- Job Ex7-1.gms Stop 10/05/20 12:02:25 elapsed 0:00:04.047
